p cnf 354 1216
c weights 1.0 1.0 2.718281828459045 0.36787944117144233 2.718281828459045 0.36787944117144233 2.718281828459045 0.36787944117144233 2.718281828459045 0.36787944117144233 2.718281828459045 0.36787944117144233 2.718281828459045 0.36787944117144233 2.718281828459045 0.36787944117144233 2.718281828459045 0.36787944117144233 2.718281828459045 0.36787944117144233 2.718281828459045 0.36787944117144233 2.718281828459045 0.36787944117144233 2.718281828459045 0.36787944117144233 2.718281828459045 0.36787944117144233 2.718281828459045 0.36787944117144233 2.718281828459045 0.36787944117144233 1.0 1.0 2.718281828459045 0.36787944117144233 2.718281828459045 0.36787944117144233 2.718281828459045 0.36787944117144233 2.718281828459045 0.36787944117144233 2.718281828459045 0.36787944117144233 2.718281828459045 0.36787944117144233 2.718281828459045 0.36787944117144233 2.718281828459045 0.36787944117144233 2.718281828459045 0.36787944117144233 1.0 1.0 2.718281828459045 0.36787944117144233 2.718281828459045 0.36787944117144233 2.718281828459045 0.36787944117144233 2.718281828459045 0.36787944117144233 2.718281828459045 0.36787944117144233 2.718281828459045 0.36787944117144233 2.718281828459045 0.36787944117144233 2.718281828459045 0.36787944117144233 2.718281828459045 0.36787944117144233 2.718281828459045 0.36787944117144233 2.718281828459045 0.36787944117144233 2.718281828459045 0.36787944117144233 2.718281828459045 0.36787944117144233 1.0 1.0 2.718281828459045 0.36787944117144233 2.718281828459045 0.36787944117144233 2.718281828459045 0.36787944117144233 2.718281828459045 0.36787944117144233 2.718281828459045 0.36787944117144233 2.718281828459045 0.36787944117144233 2.718281828459045 0.36787944117144233 2.718281828459045 0.36787944117144233 2.718281828459045 0.36787944117144233 2.718281828459045 0.36787944117144233 2.718281828459045 0.36787944117144233 2.718281828459045 0.36787944117144233 2.718281828459045 0.36787944117144233 1.0 1.0 2.718281828459045 0.36787944117144233 2.718281828459045 0.36787944117144233 2.718281828459045 0.36787944117144233 2.718281828459045 0.36787944117144233 2.718281828459045 0.36787944117144233 2.718281828459045 0.36787944117144233 2.718281828459045 0.36787944117144233 2.718281828459045 0.36787944117144233 2.718281828459045 0.36787944117144233 2.718281828459045 0.36787944117144233 2.718281828459045 0.36787944117144233 1.0 1.0 2.718281828459045 0.36787944117144233 2.718281828459045 0.36787944117144233 2.718281828459045 0.36787944117144233 2.718281828459045 0.36787944117144233 2.718281828459045 0.36787944117144233 2.718281828459045 0.36787944117144233 2.718281828459045 0.36787944117144233 2.718281828459045 0.36787944117144233 2.718281828459045 0.36787944117144233 2.718281828459045 0.36787944117144233 1.0 1.0 2.718281828459045 0.36787944117144233 2.718281828459045 0.36787944117144233 2.718281828459045 0.36787944117144233 2.718281828459045 0.36787944117144233 1.0 1.0 2.718281828459045 0.36787944117144233 2.718281828459045 0.36787944117144233 2.718281828459045 0.36787944117144233 2.718281828459045 0.36787944117144233 2.718281828459045 0.36787944117144233 2.718281828459045 0.36787944117144233 2.718281828459045 0.36787944117144233 2.718281828459045 0.36787944117144233 2.718281828459045 0.36787944117144233 2.718281828459045 0.36787944117144233 2.718281828459045 0.36787944117144233 2.718281828459045 0.36787944117144233 2.718281828459045 0.36787944117144233 2.718281828459045 0.36787944117144233 1.0 1.0 2.718281828459045 0.36787944117144233 2.718281828459045 0.36787944117144233 2.718281828459045 0.36787944117144233 2.718281828459045 0.36787944117144233 2.718281828459045 0.36787944117144233 2.718281828459045 0.36787944117144233 2.718281828459045 0.36787944117144233 2.718281828459045 0.36787944117144233 2.718281828459045 0.36787944117144233 2.718281828459045 0.36787944117144233 2.718281828459045 0.36787944117144233 2.718281828459045 0.36787944117144233 2.718281828459045 0.36787944117144233 2.718281828459045 0.36787944117144233 2.718281828459045 0.36787944117144233 2.718281828459045 0.36787944117144233 1.0 1.0 2.718281828459045 0.36787944117144233 2.718281828459045 0.36787944117144233 2.718281828459045 0.36787944117144233 2.718281828459045 0.36787944117144233 2.718281828459045 0.36787944117144233 2.718281828459045 0.36787944117144233 2.718281828459045 0.36787944117144233 2.718281828459045 0.36787944117144233 2.718281828459045 0.36787944117144233 2.718281828459045 0.36787944117144233 2.718281828459045 0.36787944117144233 1.0 1.0 2.718281828459045 0.36787944117144233 2.718281828459045 0.36787944117144233 2.718281828459045 0.36787944117144233 2.718281828459045 0.36787944117144233 2.718281828459045 0.36787944117144233 2.718281828459045 0.36787944117144233 2.718281828459045 0.36787944117144233 2.718281828459045 0.36787944117144233 1.0 1.0 2.718281828459045 0.36787944117144233 2.718281828459045 0.36787944117144233 2.718281828459045 0.36787944117144233 2.718281828459045 0.36787944117144233 2.718281828459045 0.36787944117144233 2.718281828459045 0.36787944117144233 2.718281828459045 0.36787944117144233 2.718281828459045 0.36787944117144233 2.718281828459045 0.36787944117144233 2.718281828459045 0.36787944117144233 2.718281828459045 0.36787944117144233 1.0 1.0 2.718281828459045 0.36787944117144233 2.718281828459045 0.36787944117144233 2.718281828459045 0.36787944117144233 2.718281828459045 0.36787944117144233 2.718281828459045 0.36787944117144233 2.718281828459045 0.36787944117144233 2.718281828459045 0.36787944117144233 2.718281828459045 0.36787944117144233 1.0 1.0 2.718281828459045 0.36787944117144233 2.718281828459045 0.36787944117144233 2.718281828459045 0.36787944117144233 2.718281828459045 0.36787944117144233 2.718281828459045 0.36787944117144233 1.0 1.0 2.718281828459045 0.36787944117144233 2.718281828459045 0.36787944117144233 2.718281828459045 0.36787944117144233 2.718281828459045 0.36787944117144233 2.718281828459045 0.36787944117144233 2.718281828459045 0.36787944117144233 2.718281828459045 0.36787944117144233 2.718281828459045 0.36787944117144233 2.718281828459045 0.36787944117144233 2.718281828459045 0.36787944117144233 2.718281828459045 0.36787944117144233 1.0 1.0 2.718281828459045 0.36787944117144233 2.718281828459045 0.36787944117144233 2.718281828459045 0.36787944117144233 2.718281828459045 0.36787944117144233 2.718281828459045 0.36787944117144233 2.718281828459045 0.36787944117144233 2.718281828459045 0.36787944117144233 1.0 1.0 2.718281828459045 0.36787944117144233 2.718281828459045 0.36787944117144233 2.718281828459045 0.36787944117144233 2.718281828459045 0.36787944117144233 2.718281828459045 0.36787944117144233 2.718281828459045 0.36787944117144233 2.718281828459045 0.36787944117144233 2.718281828459045 0.36787944117144233 1.0 1.0 2.718281828459045 0.36787944117144233 2.718281828459045 0.36787944117144233 2.718281828459045 0.36787944117144233 2.718281828459045 0.36787944117144233 2.718281828459045 0.36787944117144233 2.718281828459045 0.36787944117144233 2.718281828459045 0.36787944117144233 2.718281828459045 0.36787944117144233 2.718281828459045 0.36787944117144233 1.0 1.0 2.718281828459045 0.36787944117144233 2.718281828459045 0.36787944117144233 2.718281828459045 0.36787944117144233 2.718281828459045 0.36787944117144233 2.718281828459045 0.36787944117144233 2.718281828459045 0.36787944117144233 2.718281828459045 0.36787944117144233 2.718281828459045 0.36787944117144233 2.718281828459045 0.36787944117144233 2.718281828459045 0.36787944117144233 2.718281828459045 0.36787944117144233 1.0 1.0 2.718281828459045 0.36787944117144233 2.718281828459045 0.36787944117144233 2.718281828459045 0.36787944117144233 2.718281828459045 0.36787944117144233 2.718281828459045 0.36787944117144233 2.718281828459045 0.36787944117144233 2.718281828459045 0.36787944117144233 2.718281828459045 0.36787944117144233 1.0 1.0 2.718281828459045 0.36787944117144233 2.718281828459045 0.36787944117144233 2.718281828459045 0.36787944117144233 2.718281828459045 0.36787944117144233 2.718281828459045 0.36787944117144233 2.718281828459045 0.36787944117144233 1.0 1.0 2.718281828459045 0.36787944117144233 2.718281828459045 0.36787944117144233 2.718281828459045 0.36787944117144233 2.718281828459045 0.36787944117144233 2.718281828459045 0.36787944117144233 1.0 1.0 2.718281828459045 0.36787944117144233 2.718281828459045 0.36787944117144233 2.718281828459045 0.36787944117144233 2.718281828459045 0.36787944117144233 2.718281828459045 0.36787944117144233 2.718281828459045 0.36787944117144233 1.0 1.0 2.718281828459045 0.36787944117144233 2.718281828459045 0.36787944117144233 2.718281828459045 0.36787944117144233 2.718281828459045 0.36787944117144233 1.0 1.0 2.718281828459045 0.36787944117144233 2.718281828459045 0.36787944117144233 2.718281828459045 0.36787944117144233 2.718281828459045 0.36787944117144233 2.718281828459045 0.36787944117144233 2.718281828459045 0.36787944117144233 1.0 1.0 2.718281828459045 0.36787944117144233 2.718281828459045 0.36787944117144233 2.718281828459045 0.36787944117144233 2.718281828459045 0.36787944117144233 1.0 1.0 2.718281828459045 0.36787944117144233 2.718281828459045 0.36787944117144233 2.718281828459045 0.36787944117144233 2.718281828459045 0.36787944117144233 2.718281828459045 0.36787944117144233 2.718281828459045 0.36787944117144233 2.718281828459045 0.36787944117144233 1.0 1.0 2.718281828459045 0.36787944117144233 2.718281828459045 0.36787944117144233 2.718281828459045 0.36787944117144233 2.718281828459045 0.36787944117144233 1.0 1.0 2.718281828459045 0.36787944117144233 2.718281828459045 0.36787944117144233 2.718281828459045 0.36787944117144233 1.0 1.0 2.718281828459045 0.36787944117144233 2.718281828459045 0.36787944117144233 2.718281828459045 0.36787944117144233 1.0 1.0 2.718281828459045 0.36787944117144233 2.718281828459045 0.36787944117144233 2.718281828459045 0.36787944117144233 2.718281828459045 0.36787944117144233 2.718281828459045 0.36787944117144233 2.718281828459045 0.36787944117144233 2.718281828459045 0.36787944117144233 1.0 1.0 2.718281828459045 0.36787944117144233 2.718281828459045 0.36787944117144233 2.718281828459045 0.36787944117144233 2.718281828459045 0.36787944117144233 2.718281828459045 0.36787944117144233 2.718281828459045 0.36787944117144233 2.718281828459045 0.36787944117144233 2.718281828459045 0.36787944117144233 2.718281828459045 0.36787944117144233 2.718281828459045 0.36787944117144233 1.0 1.0 2.718281828459045 0.36787944117144233 2.718281828459045 0.36787944117144233 2.718281828459045 0.36787944117144233 2.718281828459045 0.36787944117144233 2.718281828459045 0.36787944117144233 1.0 1.0 2.718281828459045 0.36787944117144233 2.718281828459045 0.36787944117144233 2.718281828459045 0.36787944117144233 2.718281828459045 0.36787944117144233 1.0 1.0 2.718281828459045 0.36787944117144233 2.718281828459045 0.36787944117144233 2.718281828459045 0.36787944117144233 2.718281828459045 0.36787944117144233 2.718281828459045 0.36787944117144233 1.0 1.0 2.718281828459045 0.36787944117144233 2.718281828459045 0.36787944117144233 1.0 1.0 2.718281828459045 0.36787944117144233 2.718281828459045 0.36787944117144233 1.0 1.0 2.718281828459045 0.36787944117144233 2.718281828459045 0.36787944117144233 2.718281828459045 0.36787944117144233 1.0 1.0 2.718281828459045 0.36787944117144233 2.718281828459045 0.36787944117144233 1.0 1.0 2.718281828459045 0.36787944117144233 2.718281828459045 0.36787944117144233 1.0 1.0 2.718281828459045 0.36787944117144233 2.718281828459045 0.36787944117144233 1.0 1.0 2.718281828459045 0.36787944117144233 1.0 1.0 2.718281828459045 0.36787944117144233 2.718281828459045 0.36787944117144233 1.0 1.0 2.718281828459045 0.36787944117144233 1.0 1.0 2.718281828459045 0.36787944117144233 2.718281828459045 0.36787944117144233 1.0 1.0 2.718281828459045 0.36787944117144233 2.718281828459045 0.36787944117144233 1.0 1.0 2.718281828459045 0.36787944117144233 1.0 1.0 2.718281828459045 0.36787944117144233 1.0 1.0 1.0 1.0
2 1 17 0
2 -1 -17 0
-2 1 -17 0
-2 -1 17 0
3 1 41 0
3 -1 -41 0
-3 1 -41 0
-3 -1 41 0
4 1 83 0
4 -1 -83 0
-4 1 -83 0
-4 -1 83 0
5 1 127 0
5 -1 -127 0
-5 1 -127 0
-5 -1 127 0
6 1 183 0
6 -1 -183 0
-6 1 -183 0
-6 -1 183 0
7 1 214 0
7 -1 -214 0
-7 1 -214 0
-7 -1 214 0
8 1 223 0
8 -1 -223 0
-8 1 -223 0
-8 -1 223 0
9 1 243 0
9 -1 -243 0
-9 1 -243 0
-9 -1 243 0
10 1 289 0
10 -1 -289 0
-10 1 -289 0
-10 -1 289 0
11 1 300 0
11 -1 -300 0
-11 1 -300 0
-11 -1 300 0
12 1 317 0
12 -1 -317 0
-12 1 -317 0
-12 -1 317 0
13 1 333 0
13 -1 -333 0
-13 1 -333 0
-13 -1 333 0
14 1 346 0
14 -1 -346 0
-14 1 -346 0
-14 -1 346 0
15 1 349 0
15 -1 -349 0
-15 1 -349 0
-15 -1 349 0
16 1 353 0
16 -1 -353 0
-16 1 -353 0
-16 -1 353 0
18 17 67 0
18 -17 -67 0
-18 17 -67 0
-18 -17 67 0
19 17 175 0
19 -17 -175 0
-19 17 -175 0
-19 -17 175 0
20 17 223 0
20 -17 -223 0
-20 17 -223 0
-20 -17 223 0
21 17 236 0
21 -17 -236 0
-21 17 -236 0
-21 -17 236 0
22 17 320 0
22 -17 -320 0
-22 17 -320 0
-22 -17 320 0
23 17 327 0
23 -17 -327 0
-23 17 -327 0
-23 -17 327 0
24 17 330 0
24 -17 -330 0
-24 17 -330 0
-24 -17 330 0
25 17 341 0
25 -17 -341 0
-25 17 -341 0
-25 -17 341 0
26 17 346 0
26 -17 -346 0
-26 17 -346 0
-26 -17 346 0
28 27 41 0
28 -27 -41 0
-28 27 -41 0
-28 -27 41 0
29 27 55 0
29 -27 -55 0
-29 27 -55 0
-29 -27 55 0
30 27 98 0
30 -27 -98 0
-30 27 -98 0
-30 -27 98 0
31 27 127 0
31 -27 -127 0
-31 27 -127 0
-31 -27 127 0
32 27 136 0
32 -27 -136 0
-32 27 -136 0
-32 -27 136 0
33 27 214 0
33 -27 -214 0
-33 27 -214 0
-33 -27 214 0
34 27 243 0
34 -27 -243 0
-34 27 -243 0
-34 -27 243 0
35 27 248 0
35 -27 -248 0
-35 27 -248 0
-35 -27 248 0
36 27 273 0
36 -27 -273 0
-36 27 -273 0
-36 -27 273 0
37 27 306 0
37 -27 -306 0
-37 27 -306 0
-37 -27 306 0
38 27 327 0
38 -27 -327 0
-38 27 -327 0
-38 -27 327 0
39 27 349 0
39 -27 -349 0
-39 27 -349 0
-39 -27 349 0
40 27 353 0
40 -27 -353 0
-40 27 -353 0
-40 -27 353 0
42 41 55 0
42 -41 -55 0
-42 41 -55 0
-42 -41 55 0
43 41 98 0
43 -41 -98 0
-43 41 -98 0
-43 -41 98 0
44 41 115 0
44 -41 -115 0
-44 41 -115 0
-44 -41 115 0
45 41 127 0
45 -41 -127 0
-45 41 -127 0
-45 -41 127 0
46 41 183 0
46 -41 -183 0
-46 41 -183 0
-46 -41 183 0
47 41 214 0
47 -41 -214 0
-47 41 -214 0
-47 -41 214 0
48 41 223 0
48 -41 -223 0
-48 41 -223 0
-48 -41 223 0
49 41 300 0
49 -41 -300 0
-49 41 -300 0
-49 -41 300 0
50 41 306 0
50 -41 -306 0
-50 41 -306 0
-50 -41 306 0
51 41 311 0
51 -41 -311 0
-51 41 -311 0
-51 -41 311 0
52 41 327 0
52 -41 -327 0
-52 41 -327 0
-52 -41 327 0
53 41 343 0
53 -41 -343 0
-53 41 -343 0
-53 -41 343 0
54 41 346 0
54 -41 -346 0
-54 41 -346 0
-54 -41 346 0
56 55 67 0
56 -55 -67 0
-56 55 -67 0
-56 -55 67 0
57 55 78 0
57 -55 -78 0
-57 55 -78 0
-57 -55 78 0
58 55 83 0
58 -55 -83 0
-58 55 -83 0
-58 -55 83 0
59 55 115 0
59 -55 -115 0
-59 55 -115 0
-59 -55 115 0
60 55 223 0
60 -55 -223 0
-60 55 -223 0
-60 -55 223 0
61 55 236 0
61 -55 -236 0
-61 55 -236 0
-61 -55 236 0
62 55 300 0
62 -55 -300 0
-62 55 -300 0
-62 -55 300 0
63 55 306 0
63 -55 -306 0
-63 55 -306 0
-63 -55 306 0
64 55 336 0
64 -55 -336 0
-64 55 -336 0
-64 -55 336 0
65 55 341 0
65 -55 -341 0
-65 55 -341 0
-65 -55 341 0
66 55 346 0
66 -55 -346 0
-66 55 -346 0
-66 -55 346 0
68 67 157 0
68 -67 -157 0
-68 67 -157 0
-68 -67 157 0
69 67 163 0
69 -67 -163 0
-69 67 -163 0
-69 -67 163 0
70 67 223 0
70 -67 -223 0
-70 67 -223 0
-70 -67 223 0
71 67 243 0
71 -67 -243 0
-71 67 -243 0
-71 -67 243 0
72 67 268 0
72 -67 -268 0
-72 67 -268 0
-72 -67 268 0
73 67 300 0
73 -67 -300 0
-73 67 -300 0
-73 -67 300 0
74 67 333 0
74 -67 -333 0
-74 67 -333 0
-74 -67 333 0
75 67 351 0
75 -67 -351 0
-75 67 -351 0
-75 -67 351 0
76 67 353 0
76 -67 -353 0
-76 67 -353 0
-76 -67 353 0
77 67 354 0
77 -67 -354 0
-77 67 -354 0
-77 -67 354 0
79 78 183 0
79 -78 -183 0
-79 78 -183 0
-79 -78 183 0
80 78 268 0
80 -78 -268 0
-80 78 -268 0
-80 -78 268 0
81 78 311 0
81 -78 -311 0
-81 78 -311 0
-81 -78 311 0
82 78 338 0
82 -78 -338 0
-82 78 -338 0
-82 -78 338 0
84 83 115 0
84 -83 -115 0
-84 83 -115 0
-84 -83 115 0
85 83 183 0
85 -83 -183 0
-85 83 -183 0
-85 -83 183 0
86 83 223 0
86 -83 -223 0
-86 83 -223 0
-86 -83 223 0
87 83 236 0
87 -83 -236 0
-87 83 -236 0
-87 -83 236 0
88 83 243 0
88 -83 -243 0
-88 83 -243 0
-88 -83 243 0
89 83 248 0
89 -83 -248 0
-89 83 -248 0
-89 -83 248 0
90 83 255 0
90 -83 -255 0
-90 83 -255 0
-90 -83 255 0
91 83 277 0
91 -83 -277 0
-91 83 -277 0
-91 -83 277 0
92 83 306 0
92 -83 -306 0
-92 83 -306 0
-92 -83 306 0
93 83 338 0
93 -83 -338 0
-93 83 -338 0
-93 -83 338 0
94 83 343 0
94 -83 -343 0
-94 83 -343 0
-94 -83 343 0
95 83 346 0
95 -83 -346 0
-95 83 -346 0
-95 -83 346 0
96 83 349 0
96 -83 -349 0
-96 83 -349 0
-96 -83 349 0
97 83 353 0
97 -83 -353 0
-97 83 -353 0
-97 -83 353 0
99 98 115 0
99 -98 -115 0
-99 98 -115 0
-99 -98 115 0
100 98 127 0
100 -98 -127 0
-100 98 -127 0
-100 -98 127 0
101 98 136 0
101 -98 -136 0
-101 98 -136 0
-101 -98 136 0
102 98 148 0
102 -98 -148 0
-102 98 -148 0
-102 -98 148 0
103 98 175 0
103 -98 -175 0
-103 98 -175 0
-103 -98 175 0
104 98 214 0
104 -98 -214 0
-104 98 -214 0
-104 -98 214 0
105 98 223 0
105 -98 -223 0
-105 98 -223 0
-105 -98 223 0
106 98 243 0
106 -98 -243 0
-106 98 -243 0
-106 -98 243 0
107 98 260 0
107 -98 -260 0
-107 98 -260 0
-107 -98 260 0
108 98 273 0
108 -98 -273 0
-108 98 -273 0
-108 -98 273 0
109 98 289 0
109 -98 -289 0
-109 98 -289 0
-109 -98 289 0
110 98 320 0
110 -98 -320 0
-110 98 -320 0
-110 -98 320 0
111 98 323 0
111 -98 -323 0
-111 98 -323 0
-111 -98 323 0
112 98 346 0
112 -98 -346 0
-112 98 -346 0
-112 -98 346 0
113 98 349 0
113 -98 -349 0
-113 98 -349 0
-113 -98 349 0
114 98 351 0
114 -98 -351 0
-114 98 -351 0
-114 -98 351 0
116 115 127 0
116 -115 -127 0
-116 115 -127 0
-116 -115 127 0
117 115 192 0
117 -115 -192 0
-117 115 -192 0
-117 -115 192 0
118 115 248 0
118 -115 -248 0
-118 115 -248 0
-118 -115 248 0
119 115 277 0
119 -115 -277 0
-119 115 -277 0
-119 -115 277 0
120 115 289 0
120 -115 -289 0
-120 115 -289 0
-120 -115 289 0
121 115 323 0
121 -115 -323 0
-121 115 -323 0
-121 -115 323 0
122 115 327 0
122 -115 -327 0
-122 115 -327 0
-122 -115 327 0
123 115 336 0
123 -115 -336 0
-123 115 -336 0
-123 -115 336 0
124 115 341 0
124 -115 -341 0
-124 115 -341 0
-124 -115 341 0
125 115 349 0
125 -115 -349 0
-125 115 -349 0
-125 -115 349 0
126 115 351 0
126 -115 -351 0
-126 115 -351 0
-126 -115 351 0
128 127 136 0
128 -127 -136 0
-128 127 -136 0
-128 -127 136 0
129 127 183 0
129 -127 -183 0
-129 127 -183 0
-129 -127 183 0
130 127 192 0
130 -127 -192 0
-130 127 -192 0
-130 -127 192 0
131 127 223 0
131 -127 -223 0
-131 127 -223 0
-131 -127 223 0
132 127 243 0
132 -127 -243 0
-132 127 -243 0
-132 -127 243 0
133 127 306 0
133 -127 -306 0
-133 127 -306 0
-133 -127 306 0
134 127 317 0
134 -127 -317 0
-134 127 -317 0
-134 -127 317 0
135 127 330 0
135 -127 -330 0
-135 127 -330 0
-135 -127 330 0
137 136 148 0
137 -136 -148 0
-137 136 -148 0
-137 -136 148 0
138 136 214 0
138 -136 -214 0
-138 136 -214 0
-138 -136 214 0
139 136 236 0
139 -136 -236 0
-139 136 -236 0
-139 -136 236 0
140 136 273 0
140 -136 -273 0
-140 136 -273 0
-140 -136 273 0
141 136 300 0
141 -136 -300 0
-141 136 -300 0
-141 -136 300 0
142 136 306 0
142 -136 -306 0
-142 136 -306 0
-142 -136 306 0
143 136 311 0
143 -136 -311 0
-143 136 -311 0
-143 -136 311 0
144 136 336 0
144 -136 -336 0
-144 136 -336 0
-144 -136 336 0
145 136 338 0
145 -136 -338 0
-145 136 -338 0
-145 -136 338 0
146 136 341 0
146 -136 -341 0
-146 136 -341 0
-146 -136 341 0
147 136 353 0
147 -136 -353 0
-147 136 -353 0
-147 -136 353 0
149 148 243 0
149 -148 -243 0
-149 148 -243 0
-149 -148 243 0
150 148 268 0
150 -148 -268 0
-150 148 -268 0
-150 -148 268 0
151 148 277 0
151 -148 -277 0
-151 148 -277 0
-151 -148 277 0
152 148 323 0
152 -148 -323 0
-152 148 -323 0
-152 -148 323 0
153 148 338 0
153 -148 -338 0
-153 148 -338 0
-153 -148 338 0
154 148 343 0
154 -148 -343 0
-154 148 -343 0
-154 -148 343 0
155 148 349 0
155 -148 -349 0
-155 148 -349 0
-155 -148 349 0
156 148 351 0
156 -148 -351 0
-156 148 -351 0
-156 -148 351 0
158 157 236 0
158 -157 -236 0
-158 157 -236 0
-158 -157 236 0
159 157 268 0
159 -157 -268 0
-159 157 -268 0
-159 -157 268 0
160 157 320 0
160 -157 -320 0
-160 157 -320 0
-160 -157 320 0
161 157 323 0
161 -157 -323 0
-161 157 -323 0
-161 -157 323 0
162 157 327 0
162 -157 -327 0
-162 157 -327 0
-162 -157 327 0
164 163 192 0
164 -163 -192 0
-164 163 -192 0
-164 -163 192 0
165 163 202 0
165 -163 -202 0
-165 163 -202 0
-165 -163 202 0
166 163 214 0
166 -163 -214 0
-166 163 -214 0
-166 -163 214 0
167 163 223 0
167 -163 -223 0
-167 163 -223 0
-167 -163 223 0
168 163 243 0
168 -163 -243 0
-168 163 -243 0
-168 -163 243 0
169 163 260 0
169 -163 -260 0
-169 163 -260 0
-169 -163 260 0
170 163 268 0
170 -163 -268 0
-170 163 -268 0
-170 -163 268 0
171 163 300 0
171 -163 -300 0
-171 163 -300 0
-171 -163 300 0
172 163 306 0
172 -163 -306 0
-172 163 -306 0
-172 -163 306 0
173 163 330 0
173 -163 -330 0
-173 163 -330 0
-173 -163 330 0
174 163 351 0
174 -163 -351 0
-174 163 -351 0
-174 -163 351 0
176 175 243 0
176 -175 -243 0
-176 175 -243 0
-176 -175 243 0
177 175 255 0
177 -175 -255 0
-177 175 -255 0
-177 -175 255 0
178 175 300 0
178 -175 -300 0
-178 175 -300 0
-178 -175 300 0
179 175 317 0
179 -175 -317 0
-179 175 -317 0
-179 -175 317 0
180 175 346 0
180 -175 -346 0
-180 175 -346 0
-180 -175 346 0
181 175 351 0
181 -175 -351 0
-181 175 -351 0
-181 -175 351 0
182 175 353 0
182 -175 -353 0
-182 175 -353 0
-182 -175 353 0
184 183 192 0
184 -183 -192 0
-184 183 -192 0
-184 -183 192 0
185 183 230 0
185 -183 -230 0
-185 183 -230 0
-185 -183 230 0
186 183 236 0
186 -183 -236 0
-186 183 -236 0
-186 -183 236 0
187 183 268 0
187 -183 -268 0
-187 183 -268 0
-187 -183 268 0
188 183 289 0
188 -183 -289 0
-188 183 -289 0
-188 -183 289 0
189 183 323 0
189 -183 -323 0
-189 183 -323 0
-189 -183 323 0
190 183 336 0
190 -183 -336 0
-190 183 -336 0
-190 -183 336 0
191 183 351 0
191 -183 -351 0
-191 183 -351 0
-191 -183 351 0
193 192 230 0
193 -192 -230 0
-193 192 -230 0
-193 -192 230 0
194 192 260 0
194 -192 -260 0
-194 192 -260 0
-194 -192 260 0
195 192 311 0
195 -192 -311 0
-195 192 -311 0
-195 -192 311 0
196 192 327 0
196 -192 -327 0
-196 192 -327 0
-196 -192 327 0
197 192 330 0
197 -192 -330 0
-197 192 -330 0
-197 -192 330 0
198 192 338 0
198 -192 -338 0
-198 192 -338 0
-198 -192 338 0
199 192 341 0
199 -192 -341 0
-199 192 -341 0
-199 -192 341 0
200 192 351 0
200 -192 -351 0
-200 192 -351 0
-200 -192 351 0
201 192 354 0
201 -192 -354 0
-201 192 -354 0
-201 -192 354 0
203 202 223 0
203 -202 -223 0
-203 202 -223 0
-203 -202 223 0
204 202 230 0
204 -202 -230 0
-204 202 -230 0
-204 -202 230 0
205 202 248 0
205 -202 -248 0
-205 202 -248 0
-205 -202 248 0
206 202 260 0
206 -202 -260 0
-206 202 -260 0
-206 -202 260 0
207 202 273 0
207 -202 -273 0
-207 202 -273 0
-207 -202 273 0
208 202 300 0
208 -202 -300 0
-208 202 -300 0
-208 -202 300 0
209 202 311 0
209 -202 -311 0
-209 202 -311 0
-209 -202 311 0
210 202 320 0
210 -202 -320 0
-210 202 -320 0
-210 -202 320 0
211 202 323 0
211 -202 -323 0
-211 202 -323 0
-211 -202 323 0
212 202 346 0
212 -202 -346 0
-212 202 -346 0
-212 -202 346 0
213 202 353 0
213 -202 -353 0
-213 202 -353 0
-213 -202 353 0
215 214 230 0
215 -214 -230 0
-215 214 -230 0
-215 -214 230 0
216 214 260 0
216 -214 -260 0
-216 214 -260 0
-216 -214 260 0
217 214 281 0
217 -214 -281 0
-217 214 -281 0
-217 -214 281 0
218 214 289 0
218 -214 -289 0
-218 214 -289 0
-218 -214 289 0
219 214 320 0
219 -214 -320 0
-219 214 -320 0
-219 -214 320 0
220 214 341 0
220 -214 -341 0
-220 214 -341 0
-220 -214 341 0
221 214 349 0
221 -214 -349 0
-221 214 -349 0
-221 -214 349 0
222 214 351 0
222 -214 -351 0
-222 214 -351 0
-222 -214 351 0
224 223 230 0
224 -223 -230 0
-224 223 -230 0
-224 -223 230 0
225 223 277 0
225 -223 -277 0
-225 223 -277 0
-225 -223 277 0
226 223 341 0
226 -223 -341 0
-226 223 -341 0
-226 -223 341 0
227 223 346 0
227 -223 -346 0
-227 223 -346 0
-227 -223 346 0
228 223 349 0
228 -223 -349 0
-228 223 -349 0
-228 -223 349 0
229 223 351 0
229 -223 -351 0
-229 223 -351 0
-229 -223 351 0
231 230 236 0
231 -230 -236 0
-231 230 -236 0
-231 -230 236 0
232 230 260 0
232 -230 -260 0
-232 230 -260 0
-232 -230 260 0
233 230 317 0
233 -230 -317 0
-233 230 -317 0
-233 -230 317 0
234 230 323 0
234 -230 -323 0
-234 230 -323 0
-234 -230 323 0
235 230 333 0
235 -230 -333 0
-235 230 -333 0
-235 -230 333 0
237 236 281 0
237 -236 -281 0
-237 236 -281 0
-237 -236 281 0
238 236 289 0
238 -236 -289 0
-238 236 -289 0
-238 -236 289 0
239 236 300 0
239 -236 -300 0
-239 236 -300 0
-239 -236 300 0
240 236 306 0
240 -236 -306 0
-240 236 -306 0
-240 -236 306 0
241 236 311 0
241 -236 -311 0
-241 236 -311 0
-241 -236 311 0
242 236 317 0
242 -236 -317 0
-242 236 -317 0
-242 -236 317 0
244 243 317 0
244 -243 -317 0
-244 243 -317 0
-244 -243 317 0
245 243 343 0
245 -243 -343 0
-245 243 -343 0
-245 -243 343 0
246 243 346 0
246 -243 -346 0
-246 243 -346 0
-246 -243 346 0
247 243 353 0
247 -243 -353 0
-247 243 -353 0
-247 -243 353 0
249 248 277 0
249 -248 -277 0
-249 248 -277 0
-249 -248 277 0
250 248 300 0
250 -248 -300 0
-250 248 -300 0
-250 -248 300 0
251 248 306 0
251 -248 -306 0
-251 248 -306 0
-251 -248 306 0
252 248 327 0
252 -248 -327 0
-252 248 -327 0
-252 -248 327 0
253 248 330 0
253 -248 -330 0
-253 248 -330 0
-253 -248 330 0
254 248 353 0
254 -248 -353 0
-254 248 -353 0
-254 -248 353 0
256 255 289 0
256 -255 -289 0
-256 255 -289 0
-256 -255 289 0
257 255 311 0
257 -255 -311 0
-257 255 -311 0
-257 -255 311 0
258 255 351 0
258 -255 -351 0
-258 255 -351 0
-258 -255 351 0
259 255 353 0
259 -255 -353 0
-259 255 -353 0
-259 -255 353 0
261 260 268 0
261 -260 -268 0
-261 260 -268 0
-261 -260 268 0
262 260 300 0
262 -260 -300 0
-262 260 -300 0
-262 -260 300 0
263 260 320 0
263 -260 -320 0
-263 260 -320 0
-263 -260 320 0
264 260 327 0
264 -260 -327 0
-264 260 -327 0
-264 -260 327 0
265 260 333 0
265 -260 -333 0
-265 260 -333 0
-265 -260 333 0
266 260 341 0
266 -260 -341 0
-266 260 -341 0
-266 -260 341 0
267 260 346 0
267 -260 -346 0
-267 260 -346 0
-267 -260 346 0
269 268 289 0
269 -268 -289 0
-269 268 -289 0
-269 -268 289 0
270 268 317 0
270 -268 -317 0
-270 268 -317 0
-270 -268 317 0
271 268 346 0
271 -268 -346 0
-271 268 -346 0
-271 -268 346 0
272 268 354 0
272 -268 -354 0
-272 268 -354 0
-272 -268 354 0
274 273 289 0
274 -273 -289 0
-274 273 -289 0
-274 -273 289 0
275 273 317 0
275 -273 -317 0
-275 273 -317 0
-275 -273 317 0
276 273 343 0
276 -273 -343 0
-276 273 -343 0
-276 -273 343 0
278 277 320 0
278 -277 -320 0
-278 277 -320 0
-278 -277 320 0
279 277 333 0
279 -277 -333 0
-279 277 -333 0
-279 -277 333 0
280 277 336 0
280 -277 -336 0
-280 277 -336 0
-280 -277 336 0
282 281 289 0
282 -281 -289 0
-282 281 -289 0
-282 -281 289 0
283 281 306 0
283 -281 -306 0
-283 281 -306 0
-283 -281 306 0
284 281 311 0
284 -281 -311 0
-284 281 -311 0
-284 -281 311 0
285 281 317 0
285 -281 -317 0
-285 281 -317 0
-285 -281 317 0
286 281 323 0
286 -281 -323 0
-286 281 -323 0
-286 -281 323 0
287 281 338 0
287 -281 -338 0
-287 281 -338 0
-287 -281 338 0
288 281 353 0
288 -281 -353 0
-288 281 -353 0
-288 -281 353 0
290 289 300 0
290 -289 -300 0
-290 289 -300 0
-290 -289 300 0
291 289 306 0
291 -289 -306 0
-291 289 -306 0
-291 -289 306 0
292 289 320 0
292 -289 -320 0
-292 289 -320 0
-292 -289 320 0
293 289 323 0
293 -289 -323 0
-293 289 -323 0
-293 -289 323 0
294 289 333 0
294 -289 -333 0
-294 289 -333 0
-294 -289 333 0
295 289 338 0
295 -289 -338 0
-295 289 -338 0
-295 -289 338 0
296 289 341 0
296 -289 -341 0
-296 289 -341 0
-296 -289 341 0
297 289 346 0
297 -289 -346 0
-297 289 -346 0
-297 -289 346 0
298 289 349 0
298 -289 -349 0
-298 289 -349 0
-298 -289 349 0
299 289 351 0
299 -289 -351 0
-299 289 -351 0
-299 -289 351 0
301 300 311 0
301 -300 -311 0
-301 300 -311 0
-301 -300 311 0
302 300 317 0
302 -300 -317 0
-302 300 -317 0
-302 -300 317 0
303 300 327 0
303 -300 -327 0
-303 300 -327 0
-303 -300 327 0
304 300 341 0
304 -300 -341 0
-304 300 -341 0
-304 -300 341 0
305 300 343 0
305 -300 -343 0
-305 300 -343 0
-305 -300 343 0
307 306 317 0
307 -306 -317 0
-307 306 -317 0
-307 -306 317 0
308 306 338 0
308 -306 -338 0
-308 306 -338 0
-308 -306 338 0
309 306 343 0
309 -306 -343 0
-309 306 -343 0
-309 -306 343 0
310 306 346 0
310 -306 -346 0
-310 306 -346 0
-310 -306 346 0
312 311 327 0
312 -311 -327 0
-312 311 -327 0
-312 -311 327 0
313 311 330 0
313 -311 -330 0
-313 311 -330 0
-313 -311 330 0
314 311 338 0
314 -311 -338 0
-314 311 -338 0
-314 -311 338 0
315 311 341 0
315 -311 -341 0
-315 311 -341 0
-315 -311 341 0
316 311 346 0
316 -311 -346 0
-316 311 -346 0
-316 -311 346 0
318 317 323 0
318 -317 -323 0
-318 317 -323 0
-318 -317 323 0
319 317 333 0
319 -317 -333 0
-319 317 -333 0
-319 -317 333 0
321 320 333 0
321 -320 -333 0
-321 320 -333 0
-321 -320 333 0
322 320 341 0
322 -320 -341 0
-322 320 -341 0
-322 -320 341 0
324 323 341 0
324 -323 -341 0
-324 323 -341 0
-324 -323 341 0
325 323 343 0
325 -323 -343 0
-325 323 -343 0
-325 -323 343 0
326 323 346 0
326 -323 -346 0
-326 323 -346 0
-326 -323 346 0
328 327 346 0
328 -327 -346 0
-328 327 -346 0
-328 -327 346 0
329 327 349 0
329 -327 -349 0
-329 327 -349 0
-329 -327 349 0
331 330 341 0
331 -330 -341 0
-331 330 -341 0
-331 -330 341 0
332 330 349 0
332 -330 -349 0
-332 330 -349 0
-332 -330 349 0
334 333 336 0
334 -333 -336 0
-334 333 -336 0
-334 -333 336 0
335 333 343 0
335 -333 -343 0
-335 333 -343 0
-335 -333 343 0
337 336 343 0
337 -336 -343 0
-337 336 -343 0
-337 -336 343 0
339 338 349 0
339 -338 -349 0
-339 338 -349 0
-339 -338 349 0
340 338 353 0
340 -338 -353 0
-340 338 -353 0
-340 -338 353 0
342 341 343 0
342 -341 -343 0
-342 341 -343 0
-342 -341 343 0
344 343 346 0
344 -343 -346 0
-344 343 -346 0
-344 -343 346 0
345 343 351 0
345 -343 -351 0
-345 343 -351 0
-345 -343 351 0
347 346 351 0
347 -346 -351 0
-347 346 -351 0
-347 -346 351 0
348 346 353 0
348 -346 -353 0
-348 346 -353 0
-348 -346 353 0
350 349 353 0
350 -349 -353 0
-350 349 -353 0
-350 -349 353 0
352 351 353 0
352 -351 -353 0
-352 351 -353 0
-352 -351 353 0
